26
0 1 C7H17NO
C                    11.540999997932    27.686000000304    13.695999997740
H                    12.459000001546    27.150000002021    13.445999998462
C                    10.789999998047    27.965000000832    12.405999998714
H                    10.557000001874    27.013999998350    11.924000000022
H                     9.878999998202    28.513999999310    12.642999997797
H                    11.442999998088    28.567999998900    11.762000001252
H                    10.903369997601    27.064869999407    14.342240002336
H                    11.787890001575    28.624760001609    14.213469998724
C                    10.601999998887    24.817999999147     6.466000001476
O                    10.955999999727    23.839999999516     7.103000000462
N                    10.177999997402    25.942999998543     7.070000001594
C                    10.090999998944    26.255999999989     8.476000000328
C                     9.372000001169    27.589999999269     8.639999997907
C                    11.445999998947    26.355999998642     9.091000001832
C                     9.333000000583    25.250000001159     9.282000001852
H                     9.873999998534    26.688999998760     6.497000001535
H                     9.907999999452    28.371000002453     8.092999998238
H                     8.363999998238    27.464000000226     8.232999999527
H                     9.316999999529    27.846000000265     9.705999998045
H                     9.806999998749    24.282000000864     9.160000000427
H                     9.370999999119    25.573999998699    10.329000000077
H                     8.327999998512    25.266999998972     8.900000001813
H                    11.287999997794    26.575999999911    10.144000001776
H                    11.969999999084    27.148999999971     8.585000001558
H                    11.932000000549    25.392999998015     8.957000002262
H                    10.619980001143    24.858999998542     5.366911000155
