170
-1 1 mol
C                     8.299000000000     2.121000000000    19.555000000000
C                     7.843000000000     1.330000000000    20.796000000000
O                     7.071000000000     0.380000000000    20.669000000000
C                     7.530000000000     3.476000000000    19.487000000000
C                     8.034000000000     4.630000000000    20.370000000000
O                     9.217000000000     4.611000000000    20.775000000000
O                     7.265000000000     5.606000000000    20.500000000000
H                     9.377000000000     2.276000000000    19.628000000000
H                     6.475000000000     3.301000000000    19.708000000000
H                     7.532000000000     3.845000000000    18.464000000000
H                     8.081000000000     1.540000000000    18.659000000000
N                     8.269000000000     1.796000000000    21.980000000000
C                     7.651000000000     1.470000000000    23.268000000000
C                     6.365000000000     2.297000000000    23.493000000000
O                     6.069000000000     3.212000000000    22.722000000000
C                     8.683000000000     1.720000000000    24.377000000000
H                     8.899000000000     2.586000000000    21.990000000000
H                     7.384000000000     0.411000000000    23.282000000000
H                     8.274000000000     1.514000000000    25.367000000000
H                     9.552000000000     1.076000000000    24.247000000000
H                     9.032000000000     2.751000000000    24.367000000000
N                     5.607000000000     1.944000000000    24.541000000000
C                     4.307000000000     2.541000000000    24.861000000000
C                     3.986000000000     2.340000000000    26.353000000000
O                     4.876000000000     1.999000000000    27.136000000000
C                     3.217000000000     1.989000000000    23.898000000000
S                     1.641000000000     2.867000000000    23.763000000000
H                     5.909000000000     1.194000000000    25.147000000000
H                     4.394000000000     3.617000000000    24.718000000000
H                     2.956000000000     0.974000000000    24.169000000000
H                     3.610000000000     1.934000000000    22.884000000000
N                     2.716000000000     2.572000000000    26.723000000000
C                     2.164000000000     2.400000000000    28.064000000000
H                     2.054000000000     2.864000000000    26.016000000000
H                     2.718000000000     3.060000000000    28.735000000000
H                     2.297000000000     1.366000000000    28.381000000000
H                     1.111000000000     2.685000000000    28.063000000000
C                     7.504000000000     2.195000000000    31.648000000000
C                     6.384000000000     3.098000000000    32.189000000000
O                     6.070000000000     4.115000000000    31.262000000000
H                     8.206000000000     2.806000000000    31.081000000000
H                     6.698000000000     3.585000000000    33.112000000000
H                     5.489000000000     2.523000000000    32.430000000000
H                     7.075000000000     1.435000000000    30.994000000000
H                     8.025000000000     1.723000000000    32.481000000000
H                     6.139000000000     4.972000000000    31.690000000000
C                    11.718000000000     3.288000000000    29.518000000000
C                    10.998000000000     4.387000000000    30.331000000000
O                    10.619000000000     4.128000000000    31.473000000000
C                    10.693000000000     2.162000000000    29.202000000000
C                     9.474000000000     2.656000000000    28.396000000000
C                    11.345000000000     0.993000000000    28.446000000000
H                    12.077000000000     3.713000000000    28.579000000000
H                    10.327000000000     1.761000000000    30.146000000000
H                     8.815000000000     1.833000000000    28.129000000000
H                     8.868000000000     3.372000000000    28.949000000000
H                     9.790000000000     3.128000000000    27.466000000000
H                    10.635000000000     0.184000000000    28.276000000000
H                    11.703000000000     1.327000000000    27.476000000000
H                    12.189000000000     0.565000000000    28.985000000000
H                    12.553000000000     2.885000000000    30.091000000000
N                    10.868000000000     5.591000000000    29.751000000000
C                    10.483000000000     6.792000000000    30.493000000000
C                     9.178000000000     7.403000000000    29.955000000000
O                     8.150000000000     7.262000000000    30.619000000000
H                    11.185000000000     5.735000000000    28.802000000000
H                    10.273000000000     6.537000000000    31.533000000000
H                    11.284000000000     7.529000000000    30.446000000000
N                     9.219000000000     8.068000000000    28.787000000000
C                     8.057000000000     8.759000000000    28.215000000000
C                     8.175000000000     8.923000000000    26.692000000000
O                     9.221000000000     8.637000000000    26.113000000000
H                    10.081000000000     8.131000000000    28.261000000000
H                     7.177000000000     8.135000000000    28.377000000000
H                     7.923000000000     9.731000000000    28.690000000000
N                     7.082000000000     9.381000000000    26.069000000000
C                     7.035000000000     9.695000000000    24.646000000000
C                     5.662000000000    10.300000000000    24.339000000000
O                     4.684000000000     9.997000000000    25.017000000000
H                     6.239000000000     9.560000000000    26.598000000000
H                     7.172000000000     8.783000000000    24.069000000000
H                     7.830000000000    10.393000000000    24.381000000000
N                     5.580000000000    11.149000000000    23.303000000000
C                     4.350000000000    11.818000000000    22.868000000000
C                     3.491000000000    10.870000000000    22.019000000000
O                     3.681000000000    10.791000000000    20.804000000000
H                     6.409000000000    11.347000000000    22.754000000000
H                     3.772000000000    12.113000000000    23.746000000000
H                     4.604000000000    12.704000000000    22.286000000000
N                     2.594000000000    10.134000000000    22.695000000000
C                     1.881000000000     8.997000000000    22.120000000000
C                     2.852000000000     7.824000000000    21.941000000000
O                     3.847000000000     7.721000000000    22.662000000000
H                     1.429000000000     9.264000000000    21.167000000000
H                     1.076000000000     8.698000000000    22.792000000000
H                     2.528000000000    10.248000000000    23.696000000000
N                     2.537000000000     6.923000000000    20.999000000000
C                     3.313000000000     5.709000000000    20.751000000000
C                     2.628000000000     4.500000000000    21.413000000000
S                     2.241000000000     4.704000000000    23.174000000000
H                     1.712000000000     7.048000000000    20.426000000000
H                     4.315000000000     5.800000000000    21.178000000000
H                     3.278000000000     3.631000000000    21.310000000000
H                     1.706000000000     4.247000000000    20.896000000000
H                     3.390000000000     5.540000000000    19.677000000000
C                    10.816000000000     7.157000000000    22.526000000000
C                    11.963000000000     7.772000000000    23.332000000000
O                    13.109000000000     7.767000000000    22.882000000000
H                    10.907000000000     6.071000000000    22.550000000000
H                     9.847000000000     7.416000000000    22.955000000000
H                    10.865000000000     7.505000000000    21.494000000000
N                    11.642000000000     8.292000000000    24.524000000000
C                    12.591000000000     8.946000000000    25.422000000000
C                    12.840000000000     8.004000000000    26.610000000000
O                    11.902000000000     7.393000000000    27.127000000000
H                    10.688000000000     8.249000000000    24.859000000000
H                    13.538000000000     9.133000000000    24.913000000000
H                    12.173000000000     9.887000000000    25.779000000000
N                    14.119000000000     7.890000000000    26.984000000000
C                    14.633000000000     6.968000000000    27.990000000000
C                    15.501000000000     5.900000000000    27.290000000000
C                    14.768000000000     4.988000000000    26.322000000000
C                    14.491000000000     5.420000000000    25.008000000000
C                    14.365000000000     3.700000000000    26.730000000000
C                    13.779000000000     4.589000000000    24.123000000000
C                    13.677000000000     2.860000000000    25.835000000000
C                    13.373000000000     3.306000000000    24.535000000000
O                    12.693000000000     2.492000000000    23.679000000000
H                    14.824000000000     8.439000000000    26.507000000000
H                    13.810000000000     6.490000000000    28.521000000000
H                    15.990000000000     5.274000000000    28.039000000000
H                    16.305000000000     6.389000000000    26.739000000000
H                    14.807000000000     6.400000000000    24.679000000000
H                    14.587000000000     3.349000000000    27.726000000000
H                    13.553000000000     4.941000000000    23.127000000000
H                    13.389000000000     1.868000000000    26.145000000000
H                    12.502000000000     2.905000000000    22.828000000000
H                    15.247000000000     7.520000000000    28.702000000000
O                     7.320000000000     8.368000000000    21.503000000000
H                     8.254000000000     8.697000000000    21.655000000000
H                     7.349000000000     7.387000000000    21.283000000000
O                    11.999000000000     3.767000000000    21.186000000000
H                    12.545000000000     4.552000000000    20.886000000000
H                    11.025000000000     3.987000000000    21.065000000000
Cl                   10.176000000000     5.126000000000    25.292000000000
C                     8.483000000000     5.426000000000    25.440000000000
C                     7.717000000000     5.710000000000    24.312000000000
C                     6.356000000000     5.985000000000    24.429000000000
C                     5.727000000000     5.970000000000    25.700000000000
C                     4.349000000000     6.268000000000    25.866000000000
C                     6.509000000000     5.650000000000    26.851000000000
C                     7.891000000000     5.390000000000    26.698000000000
C                     5.888000000000     5.615000000000    28.120000000000
C                     4.533000000000     5.901000000000    28.248000000000
C                     3.766000000000     6.233000000000    27.136000000000
S                     2.036000000000     6.644000000000    27.370000000000
O                     1.527000000000     5.752000000000    28.416000000000
O                     1.400000000000     6.712000000000    26.050000000000
N                     2.040000000000     8.258000000000    28.068000000000
C                     2.516000000000     9.393000000000    27.253000000000
H                     8.179000000000     5.721000000000    23.336000000000
H                     5.776000000000     6.207000000000    23.545000000000
H                     3.759000000000     6.528000000000    25.000000000000
H                     8.490000000000     5.184000000000    27.572000000000
H                     6.479000000000     5.376000000000    28.992000000000
H                     4.080000000000     5.871000000000    29.229000000000
H                     2.352000000000     8.286000000000    29.041000000000
H                     2.935000000000     8.947000000000    26.353000000000
H                     3.300000000000     9.922000000000    27.794000000000
H                     1.670000000000    10.025000000000    26.984000000000
